(set-logic QF_SLIA)
(set-option :produce-models true)
(declare-const X String)
; /filename=[^\n]*\u{2e}emf/i
(assert (not (str.in_re X (re.++ (str.to_re "/filename=") (re.* (re.comp (str.to_re "\u{0a}"))) (str.to_re ".emf/i\u{0a}")))))
; /^[a-zA-Z0-9]+$/
(assert (not (str.in_re X (re.++ (str.to_re "/") (re.+ (re.union (re.range "a" "z") (re.range "A" "Z") (re.range "0" "9"))) (str.to_re "/\u{0a}")))))
; from\s+\x2Fdss\x2Fcc\.2_0_0\.[^\n\r]*uploadServer
(assert (str.in_re X (re.++ (str.to_re "from") (re.+ (re.union (str.to_re " ") (str.to_re "\u{09}") (str.to_re "\u{0a}") (str.to_re "\u{0c}") (str.to_re "\u{0d}"))) (str.to_re "/dss/cc.2_0_0.") (re.* (re.union (str.to_re "\u{0a}") (str.to_re "\u{0d}"))) (str.to_re "uploadServer\u{0a}"))))
; ^\d{1,3}\.\d{1,4}$
(assert (not (str.in_re X (re.++ ((_ re.loop 1 3) (re.range "0" "9")) (str.to_re ".") ((_ re.loop 1 4) (re.range "0" "9")) (str.to_re "\u{0a}")))))
; /\u{2e}spx([\?\u{5c}\u{2f}]|$)/smiU
(assert (str.in_re X (re.++ (str.to_re "/.spx") (re.union (str.to_re "?") (str.to_re "\u{5c}") (str.to_re "/")) (str.to_re "/smiU\u{0a}"))))
(check-sat)
